%chk=2.chk
%nprocshared=24
%mem=80GB
#P opt freq m062x/6-311++g(d,p) geom=connectivity temperature=0.001

Title Card Required

0 1
 O                  1.22970000   -0.11800000   -0.02180000
 N                 -0.02860000    0.04210000   -0.00700000
 C                 -0.63070000    1.17480000   -0.01320000
 C                 -1.97050000    1.32270000    0.00190000
 O                 -2.85860000    0.31820000    0.03070000
 C                 -3.27810000   -0.00960000    1.36990000
 N                 -2.31190000    2.56110000   -0.02530000
 C                 -1.22330000    3.28660000   -0.03470000
 C                 -1.07420000    4.68490000   -0.02300000
 C                  0.23110000    5.22100000   -0.00640000
 C                  1.35650000    4.36500000   -0.00460000
 C                  1.19110000    2.96210000   -0.01480000
 C                 -0.11830000    2.44110000   -0.02820000
 H                  1.55760000   -0.15970000    0.87950000
 H                 -3.31400000   -1.09300000    1.48440000
 H                 -2.56950000    0.40810000    2.08510000
 H                 -4.26810000    0.40810000    1.55300000
 H                 -1.94800000    5.33650000   -0.02660000
 H                  0.37080000    6.30190000    0.00500000
 H                  2.36010000    4.79020000    0.00460000
 H                  2.05440000    2.29670000   -0.01230000

 1 2 1.0 14 1.0
 2 3 2.0
 3 4 1.0 13 1.0
 4 5 1.0 7 2.0
 5 6 1.0
 6 15 1.0 16 1.0 17 1.0
 7 8 1.0
 8 9 2.0 13 1.0
 9 10 1.0 18 1.0
 10 11 2.0 19 1.0
 11 12 1.0 20 1.0
 12 13 2.0 21 1.0
 13
 14
 15
 16
 17
 18
 19
 20
 21

