%chk=8.chk
%nprocshared=24
%mem=80GB
#P opt freq m062x/6-311++g(d,p) geom=connectivity temperature=0.001

Title Card Required

0 1
 C                  1.43220000    0.05280000   -0.40600000
 N                  0.14690000   -0.14520000    0.27730000
 O                  0.10170000    0.64300000    1.37900000
 H                  2.22250000    0.17450000    0.33480000
 H                  1.64940000   -0.81430000   -1.02980000
 H                  1.37840000    0.94500000   -1.02980000
 H                 -0.61730000   -0.75300000    0.01930000
 H                  0.06950000    0.09270000    2.16500000

 1 2 1.0 4 1.0 5 1.0 6 1.0
 2 3 1.0 7 1.0
 3 8 1.0
 4
 5
 6
 7
 8

