%chk=1.chk
%nprocshared=24
%mem=80GB
#P opt freq m062x/6-311++g(d,p) geom=connectivity temperature=0.001

Title Card Required

0 1
 C                  2.36170000   -2.89390000   -2.37840000
 C                  1.99970000   -2.12580000   -1.08820000
 N                  2.14340000   -0.64980000   -1.22740000
 O                  1.27700000   -0.19640000   -2.17900000
 C                  1.91270000    0.07500000    0.05560000
 C                  2.18430000    1.59110000   -0.04530000
 H                  2.30880000   -3.96610000   -2.18980000
 H                  1.65910000   -2.62880000   -3.16830000
 H                  3.37280000   -2.62880000   -2.68740000
 H                  0.93790000   -2.29610000   -0.91020000
 H                  2.73210000   -2.41650000   -0.33500000
 H                  0.51450000    0.20260000   -1.75350000
 H                  0.84860000   -0.03800000    0.26300000
 H                  2.64920000   -0.32810000    0.75070000
 H                  2.26010000    2.01410000    0.95640000
 H                  3.11830000    1.75800000   -0.58180000
 H                  1.36630000    2.07180000   -0.58180000

 1 2 1.0 7 1.0 8 1.0 9 1.0
 2 3 1.0 10 1.0 11 1.0
 3 4 1.0 5 1.0
 4 12 1.0
 5 6 1.0 13 1.0 14 1.0
 6 15 1.0 16 1.0 17 1.0
 7
 8
 9
 10
 11
 12
 13
 14
 15
 16
 17

