%chk=12_p.chk
%nprocshared=24
%mem=80GB
#P opt freq m062x/6-311++g(d,p) geom=connectivity temperature=0.001

Title Card Required

1 1
 O                  1.28330000    1.44840000   -0.30030000
 C                  0.92650000    0.74240000    0.67220000
 N                  1.24810000    1.08350000    1.93570000
 O                  1.97560000    2.13090000    2.20920000
 O                  0.20470000   -0.39850000    0.49870000
 C                 -0.25830000   -0.93980000   -0.74360000
 C                 -1.00360000   -2.19230000   -0.47240000
 C                 -2.16550000   -2.16350000    0.33570000
 C                 -2.88560000   -3.34300000    0.60050000
 C                 -2.45340000   -4.56770000    0.06190000
 C                 -1.29410000   -4.61340000   -0.73200000
 C                 -0.57340000   -3.43410000   -0.99680000
 H                  0.38643694    1.19563569    2.43063672
 H                  2.04590000    2.23200000    3.16130000
 H                 -0.96770000   -0.21720000   -1.14700000
 H                  0.63240000   -1.20530000   -1.31290000
 H                 -2.51030000   -1.22040000    0.75960000
 H                 -3.77920000   -3.30800000    1.22370000
 H                 -3.01610000   -5.48010000    0.25950000
 H                 -0.95370000   -5.56400000   -1.14260000
 H                  0.32470000   -3.48280000   -1.61270000
 H                  1.71781063    0.29596077    2.33464095

 1 2 2.0
 2 3 1.0 5 1.0
 3 4 1.0 13 1.0 22 1.0
 4 14 1.0
 5 6 1.0
 6 7 1.0 15 1.0 16 1.0
 7 8 2.0 12 1.0
 8 9 1.0 17 1.0
 9 10 2.0 18 1.0
 10 11 1.0 19 1.0
 11 12 2.0 20 1.0
 12 21 1.0
 13
 14
 15
 16
 17
 18
 19
 20
 21
 22

