%chk=14_p.chk
%nprocshared=24
%mem=80GB
#P opt freq m062x/6-311++g(d,p) geom=connectivity temperature=0.001

Title Card Required

1 1
 O                 -2.73520000   -0.03030000    0.37280000
 C                 -2.06710000    1.12990000    0.15810000
 C                 -0.65150000    1.16740000    0.06220000
 C                  0.10620000   -0.03020000    0.02500000
 C                  1.51210000    0.00830000   -0.02920000
 C                  2.18340000    1.24360000   -0.05530000
 C                  1.44730000    2.44080000   -0.03910000
 C                  0.04270000    2.40280000    0.01390000
 O                 -2.76380000    2.16820000    0.07930000
 H                 -2.82140000   -0.18000000    1.31710000
 H                 -0.40010000   -0.99540000    0.03830000
 H                  2.08230000   -0.92040000   -0.05100000
 H                  3.27250000    1.27310000   -0.08810000
 H                  1.96590000    3.39910000   -0.06750000
 H                 -0.51350000    3.34020000    0.01750000
 H                 -2.33973721    3.02699146    0.01412349

 1 2 1.0 10 1.0
 2 3 1.0 9 2.0
 3 4 2.0 8 1.0
 4 5 1.0 11 1.0
 5 6 2.0 12 1.0
 6 7 1.0 13 1.0
 7 8 2.0 14 1.0
 8 15 1.0
 9 16 1.0
 10
 11
 12
 13
 14
 15
 16

