%chk=20.chk
%nprocshared=24
%mem=80GB
#P opt freq m062x/6-311++g(d,p) geom=connectivity temperature=0.001

Title Card Required

0 1
 C                  2.24600000   -0.76240000   -1.25580000
 C                  2.44670000   -0.01010000    0.07730000
 C                  1.93960000    1.45430000    0.01240000
 C                  2.13680000    2.21480000    1.34340000
 O                  1.65400000    3.54640000    1.21970000
 H                  2.27330000   -1.83690000   -1.07440000
 H                  1.28140000   -0.49080000   -1.68470000
 H                  3.04150000   -0.49080000   -1.94970000
 H                  1.81740000   -0.51830000    0.80800000
 H                  3.52410000    0.04710000    0.23200000
 H                  2.56910000    1.96070000   -0.71930000
 H                  0.86240000    1.39530000   -0.14320000
 H                  1.50100000    1.74950000    2.09650000
 H                  3.20770000    2.31500000    1.52050000
 H                  1.51840000    3.92010000    2.09350000

 1 2 1.0 6 1.0 7 1.0 8 1.0
 2 3 1.0 9 1.0 10 1.0
 3 4 1.0 11 1.0 12 1.0
 4 5 1.0 13 1.0 14 1.0
 5 15 1.0
 6
 7
 8
 9
 10
 11
 12
 13
 14
 15

