%chk=21_p.chk
%nprocshared=24
%mem=80GB
#P opt freq m062x/6-311++g(d,p) geom=connectivity temperature=0.001

Title Card Required

1 1
 O                 -0.69010000   -1.19520000   -0.01420000
 C                 -0.01220000   -0.02110000    0.00350000
 C                 -0.71330000    1.20090000    0.00380000
 C                 -0.00910000    2.42150000    0.00110000
 C                  1.39840000    2.42220000    0.00010000
 C                  2.10160000    1.20280000    0.00110000
 C                  1.39660000   -0.01730000    0.00380000
 H                 -0.47949539   -1.69824910    0.77585525
 H                 -1.80330000    1.20200000    0.00620000
 H                 -0.55360000    3.36580000   -0.00020000
 H                  1.94340000    3.36610000   -0.00150000
 H                  3.19160000    1.20350000   -0.00020000
 H                  1.94260000   -0.96070000    0.00620000
 H                 -1.63356154   -1.01962082   -0.03973960

 1 2 1.0 8 1.0 14 1.0
 2 3 2.0 7 1.0
 3 4 1.0 9 1.0
 4 5 2.0 10 1.0
 5 6 1.0 11 1.0
 6 7 2.0 12 1.0
 7 13 1.0
 8
 9
 10
 11
 12
 13
 14

