%chk=25.chk
%nprocshared=24
%mem=80GB
#P opt freq m062x/6-311++g(d,p) geom=connectivity temperature=0.001

Title Card Required

0 1
 C                 -0.79760000    1.39650000    0.47980000
 S                  0.05150000   -0.01640000   -0.31190000
 O                 -0.58290000   -1.39040000    0.21870000
 C                  1.83210000    0.03620000    0.10100000
 O                 -0.13410000    0.06790000   -1.90250000
 H                 -0.73710000    1.29580000    1.56350000
 H                 -0.31810000    2.32630000    0.17400000
 H                 -1.84370000    1.40940000    0.17400000
 H                  1.95390000    0.03980000    1.18420000
 H                  2.32810000   -0.83950000   -0.31750000
 H                  2.27560000    0.93970000   -0.31750000

 1 2 1.0 6 1.0 7 1.0 8 1.0
 2 3 2.0 4 1.0 5 2.0
 3
 4 9 1.0 10 1.0 11 1.0
 5
 6
 7
 8
 9
 10
 11

