%chk=26.chk
%nprocshared=24
%mem=80GB
#P opt freq m062x/6-311++g(d,p) geom=connectivity temperature=0.001

Title Card Required

0 1
 O                 -1.21110000    1.90120000    4.58340000
 C                 -1.79150000    0.79740000    4.46460000
 O                 -1.59660000   -0.13650000    5.42880000
 C                 -2.66740000    0.55360000    3.30050000
 C                 -3.30910000   -0.76330000    3.31160000
 C                 -4.56870000   -1.01180000    3.78550000
 C                 -5.51530000   -0.14630000    4.37430000
 C                 -6.76940000   -0.66250000    4.74860000
 F                 -7.65210000    0.12480000    5.29790000
 C                 -7.07200000   -2.02030000    4.52120000
 C                 -6.12050000   -2.87060000    3.92640000
 C                 -4.84220000   -2.36610000    3.59820000
 C                 -2.79720000   -1.93520000    2.88380000
 C                 -1.45190000   -2.11940000    2.32940000
 C                 -3.70830000   -2.95150000    3.06670000
 C                 -3.48650000   -4.25630000    2.78040000
 C                 -4.29340000   -5.35270000    3.05100000
 C                 -4.73910000   -6.16940000    1.98680000
 C                 -5.45670000   -7.35140000    2.24270000
 C                 -5.75300000   -7.74180000    3.56520000
 S                 -6.60490000   -9.27930000    3.82140000
 O                 -5.76630000  -10.46400000    3.13330000
 C                 -6.84760000   -9.70990000    5.58550000
 O                 -8.04170000   -9.22050000    3.10680000
 C                 -5.34410000   -6.91180000    4.63130000
 C                 -4.60880000   -5.73580000    4.37720000
 H                 -1.67410000   -1.01320000    5.04540000
 H                 -3.47850000    1.27780000    3.37740000
 H                 -2.01510000    0.55670000    2.42730000
 H                 -5.28120000    0.90560000    4.53770000
 H                 -8.04710000   -2.41480000    4.80700000
 H                 -6.37150000   -3.91140000    3.72160000
 H                 -0.73380000   -2.21770000    3.14350000
 H                 -1.43180000   -3.02040000    1.71630000
 H                 -1.19040000   -1.25690000    1.71630000
 H                 -2.54280000   -4.44750000    2.26960000
 H                 -4.52700000   -5.88430000    0.95640000
 H                 -5.78610000   -7.97070000    1.40840000
 H                 -6.86280000  -10.79420000    5.69600000
 H                 -6.03060000   -9.29590000    6.17630000
 H                 -7.79390000   -9.29590000    5.93360000
 H                 -5.59760000   -7.18060000    5.65680000
 H                 -4.28140000   -5.11770000    5.21320000

 1 2 2.0
 2 3 1.0 4 1.0
 3 27 1.0
 4 5 1.0 28 1.0 29 1.0
 5 6 1.0 13 2.0
 6 7 2.0 12 1.0
 7 8 1.0 30 1.0
 8 9 1.0 10 2.0
 9
 10 11 1.0 31 1.0
 11 12 2.0 32 1.0
 12 15 1.0
 13 14 1.0 15 1.0
 14 33 1.0 34 1.0 35 1.0
 15 16 2.0
 16 17 1.0 36 1.0
 17 18 2.0 26 1.0
 18 19 1.0 37 1.0
 19 20 2.0 38 1.0
 20 21 1.0 25 1.0
 21 22 2.0 23 1.0 24 2.0
 22
 23 39 1.0 40 1.0 41 1.0
 24
 25 26 2.0 42 1.0
 26 43 1.0
 27
 28
 29
 30
 31
 32
 33
 34
 35
 36
 37
 38
 39
 40
 41
 42
 43

