%chk=35.chk
%nprocshared=24
%mem=80GB
#P opt freq m062x/6-311++g(d,p) geom=connectivity temperature=0.001

Title Card Required

0 1
 O                 -2.88460000   10.47960000    5.38460000
 C                 -2.63080000    9.41170000    4.78250000
 O                 -3.67060000    8.66610000    4.33260000
 C                 -1.22270000    9.01650000    4.57030000
 C                 -1.06190000    7.68910000    3.97270000
 C                 -0.90320000    7.44040000    2.63380000
 C                 -0.87400000    8.32040000    1.53010000
 C                 -0.73030000    7.78950000    0.23340000
 F                 -0.67250000    8.58860000   -0.79590000
 C                 -0.66190000    6.39450000    0.04780000
 C                 -0.73760000    5.52470000    1.15290000
 C                 -0.80300000    6.06020000    2.45940000
 C                 -1.06740000    6.49930000    4.60700000
 C                 -1.27250000    6.30540000    6.04440000
 C                 -0.82570000    5.47940000    3.71550000
 C                 -0.62150000    4.18500000    4.06150000
 C                 -0.22480000    3.11890000    3.26720000
 C                 -0.95120000    1.90540000    3.30560000
 C                 -0.51800000    0.78600000    2.57340000
 C                  0.64780000    0.85520000    1.77870000
 S                  1.22370000   -0.56850000    0.89140000
 C                 -0.20350000   -1.25920000   -0.02240000
 O                  2.20330000   -0.03820000   -0.26310000
 C                  1.38350000    2.05880000    1.74850000
 C                  0.95960000    3.17250000    2.49500000
 H                 -4.16000000    8.31520000    5.08030000
 H                 -0.82060000    9.71850000    3.83970000
 H                 -0.77720000    8.94810000    5.56280000
 H                 -0.96150000    9.39690000    1.67730000
 H                 -0.54970000    5.98580000   -0.95650000
 H                 -0.74560000    4.44570000    0.99820000
 H                 -1.30420000    5.23870000    6.26630000
 H                 -0.45200000    6.76660000    6.59400000
 H                 -2.21410000    6.76660000    6.34250000
 H                 -0.79950000    3.97380000    5.11590000
 H                 -1.85690000    1.83190000    3.90750000
 H                 -1.08940000   -0.14090000    2.62200000
 H                 -0.94880000   -1.61980000    0.68660000
 H                 -0.64360000   -0.48340000   -0.64900000
 H                  0.13180000   -2.08560000   -0.64900000
 H                  2.28720000    2.12900000    1.14310000
 H                  1.55450000    4.08560000    2.47500000

 1 2 2.0
 2 3 1.0 4 1.0
 3 26 1.0
 4 5 1.0 27 1.0 28 1.0
 5 6 1.0 13 2.0
 6 7 2.0 12 1.0
 7 8 1.0 29 1.0
 8 9 1.0 10 2.0
 9
 10 11 1.0 30 1.0
 11 12 2.0 31 1.0
 12 15 1.0
 13 14 1.0 15 1.0
 14 32 1.0 33 1.0 34 1.0
 15 16 2.0
 16 17 1.0 35 1.0
 17 18 2.0 25 1.0
 18 19 1.0 36 1.0
 19 20 2.0 37 1.0
 20 21 1.0 24 1.0
 21 22 1.0 23 2.0
 22 38 1.0 39 1.0 40 1.0
 23
 24 25 2.0 41 1.0
 25 42 1.0
 26
 27
 28
 29
 30
 31
 32
 33
 34
 35
 36
 37
 38
 39
 40
 41
 42

