%chk=benzene.chk
%nprocshared=24
%mem=10GB
#p opt freq m062x/6-311++g(d,p) geom=connectivity temperature=0.001

Title Card Required

0 1
 C                  0.38351048    0.79799801   -0.48460830
 C                  0.58593488    0.08552392   -1.66724162
 C                  0.64559872    2.16731393   -0.44193869
 C                  1.05096361    0.74260944   -2.80619230
 H                  0.37905779   -0.99399593   -1.70093531
 C                  1.10982647    2.82463873   -1.58159942
 H                  0.48617219    2.72910530    0.48996680
 C                  1.31264166    2.11234640   -2.76356972
 H                  1.21022832    0.18148384   -3.73840182
 H                  1.31618865    3.90417565   -1.54778069
 H                  1.67884734    2.63029794   -3.66176927
 H                  0.02679641    0.29367246    0.38906831

 1 2 1.5 3 1.5 12 1.0
 2 4 1.5 5 1.0
 3 6 1.5 7 1.0
 4 8 1.5 9 1.0
 5
 6 8 1.5 10 1.0
 7
 8 11 1.0
 9
 10
 11
 12

