%chk=10.chk
%nprocshared=24
%mem=80GB
#P opt freq b3lyp/6-31g(d) geom=connectivity temperature=0.001

Title Card Required

0 1
 O                  1.41990000    0.27540000   -0.13950000
 N                  0.21670000    0.01580000    0.29080000
 C                 -0.36040000   -1.20980000    0.21570000
 C                  0.22590000   -2.30830000   -0.45750000
 C                 -0.41360000   -3.56190000   -0.47100000
 C                 -1.64290000   -3.72890000    0.19180000
 C                 -2.24920000   -2.63660000    0.83750000
 C                 -1.60980000   -1.38410000    0.84680000
 H                  2.00710000    0.40210000    0.60930000
 H                 -0.28630000    0.79180000    0.69680000
 H                  1.17990000   -2.18750000   -0.97080000
 H                  0.04260000   -4.40240000   -0.99410000
 H                 -2.12610000   -4.70580000    0.20510000
 H                 -3.21360000   -2.76060000    1.33010000
 H                 -2.08660000   -0.54140000    1.34730000

 1 2 1.0 9 1.0
 2 3 1.0 10 1.0
 3 4 2.0 8 1.0
 4 5 1.0 11 1.0
 5 6 2.0 12 1.0
 6 7 1.0 13 1.0
 7 8 2.0 14 1.0
 8 15 1.0
 9
 10
 11
 12
 13
 14
 15

