%chk=29_p.chk
%nprocshared=24
%mem=80GB
#P opt freq b3lyp/6-31g(d) geom=connectivity temperature=0.001

Title Card Required

1 1
 O                 -2.36390000    2.51860000   -0.83290000
 S                 -1.91400000    0.98360000   -0.70990000
 C                 -0.47720000    0.82420000    0.31230000
 C                 -0.26300000   -0.35110000    1.06310000
 C                  0.87750000   -0.47250000    1.87790000
 C                  1.81190000    0.57700000    1.94150000
 C                  1.60730000    1.74810000    1.18990000
 C                  0.46700000    1.87080000    0.37540000
 N                 -1.55620000    0.37500000   -2.32060000
 O                 -0.50220000    1.07670000   -2.79680000
 O                 -3.13870000    0.14040000   -0.10800000
 H                 -0.98190000   -1.16890000    1.01330000
 H                  1.03720000   -1.38000000    2.46020000
 H                  2.69500000    0.48270000    2.57350000
 H                  2.33230000    2.56060000    1.23860000
 H                  0.31470000    2.77890000   -0.20800000
 H                 -1.93280000   -0.33350000   -2.93400000
 H                  0.01230000    1.41930000   -2.06220000
 H                 -1.70048509    3.21027106   -0.88832380

 1 2 2.0 19 1.0
 2 3 1.0 9 1.0 11 2.0
 3 4 2.0 8 1.0
 4 5 1.0 12 1.0
 5 6 2.0 13 1.0
 6 7 1.0 14 1.0
 7 8 2.0 15 1.0
 8 16 1.0
 9 10 1.0 17 1.0
 10 18 1.0
 11
 12
 13
 14
 15
 16
 17
 18
 19

