%chk=33_p.chk
%nprocshared=24
%mem=80GB
#P opt freq b3lyp/6-31g(d) geom=connectivity temperature=0.001

Title Card Required

1 1
 O                 -1.82150000   -1.91150000    0.93910000
 S                 -0.45470000   -1.74100000    0.11720000
 C                 -0.85430000   -2.32370000   -1.57180000
 C                 -0.16890000    0.00090000   -0.00370000
 C                  1.07420000    0.51340000    0.42120000
 C                  1.33690000    1.89270000    0.34570000
 C                  0.35770000    2.76970000   -0.15810000
 C                 -0.88450000    2.26540000   -0.58640000
 C                 -1.14900000    0.88390000   -0.50820000
 H                 -0.85830000   -3.41360000   -1.58870000
 H                 -1.83730000   -1.95220000   -1.86120000
 H                 -0.10520000   -1.95220000   -2.27100000
 H                  1.83700000   -0.16090000    0.81040000
 H                  2.29940000    2.28200000    0.67760000
 H                  0.56130000    3.83890000   -0.21650000
 H                 -1.64140000    2.94460000   -0.97850000
 H                 -2.11330000    0.49770000   -0.83860000
 H                 -1.79544046   -2.10642492    1.87874098

 1 2 2.0 18 1.0
 2 3 1.0 4 1.0
 3 10 1.0 11 1.0 12 1.0
 4 5 2.0 9 1.0
 5 6 1.0 13 1.0
 6 7 2.0 14 1.0
 7 8 1.0 15 1.0
 8 9 2.0 16 1.0
 9 17 1.0
 10
 11
 12
 13
 14
 15
 16
 17
 18

